(set-logic HORN)
(set-info :source |
    Benchmark: C_VC
    Output by Princess (http://www.philipp.ruemmer.org/princess.shtml)
|)
(set-info :status unknown)
(declare-fun inv_main21 (Int Int Int Int Int) Bool)
(declare-fun inv_main25 (Int Int Int Int Int) Bool)
(assert (forall ((var0 Int) (var1 Int) (var2 Int) (var3 Int) (var4 Int)) (or (not (and (inv_main21 var4 var2 var1 var3 var0) (not (or (<= 0 (+ (+ var4 (* (- 1) (+ var2 1))) (- 1))) (or (not (<= 0 (+ (+ var4 (* (- 1) var2)) (- 1)))) (not (<= 0 (+ (+ var0 (* (- 1) var1)) (- 1))))))))) (inv_main25 var4 var2 var1 var3 var0))))
(assert (forall ((var0 Int) (var1 Int) (var2 Int) (var3 Int) (var4 Int) (var5 Int)) (or (not (and (inv_main21 var5 var3 var1 var4 var0) (and (not (= var2 0)) (not (or (not (<= 0 (+ (+ var5 (* (- 1) (+ var3 1))) (- 1)))) (or (not (<= 0 (+ (+ var5 (* (- 1) var3)) (- 1)))) (not (<= 0 (+ (+ var0 (* (- 1) var1)) (- 1)))))))))) (inv_main25 var5 var3 var1 var4 var0))))
(assert (forall ((var0 Int) (var1 Int) (var2 Int) (var3 Int) (var4 Int) (var5 Int)) (or (not (and (inv_main21 var4 var2 var1 var3 var0) (and (and (<= 0 (+ var1 (* (- 1) var0))) (<= 0 (+ (- 1) (+ (* (- 1) var2) var4)))) (= var5 0)))) (inv_main21 var4 var2 var5 var3 var0))))
(assert (forall ((var0 Int) (var1 Int) (var2 Int) (var3 Int) (var4 Int) (var5 Int) (var6 Int)) (or (not (and (inv_main21 var6 var5 var2 var4 var0) (and (and (and (and (<= 0 (+ (+ var6 (* (- 1) (+ var5 1))) (- 1))) (<= 0 (+ (+ var6 (* (- 1) var5)) (- 1)))) (<= 0 (+ (+ var0 (* (- 1) var2)) (- 1)))) (= (+ (+ (+ var2 1) 1) 1) var3)) (= (+ (+ var5 1) 1) var1)))) (inv_main21 var6 var1 var3 var4 var0))))
(assert (forall ((var0 Int) (var1 Int) (var2 Int) (var3 Int) (var4 Int) (var5 Int) (var6 Int)) (or (not (and (inv_main25 var4 var2 var1 var3 var0) (and (= (+ var2 1) var6) (= (+ var1 1) var5)))) (inv_main21 var4 var6 var5 var3 var0))))
(assert (forall ((var0 Int) (var1 Int) (var2 Int) (var3 Int) (var4 Int)) (or (not (and (and (and (and (<= 0 (+ var4 (- 1))) (not (<= 0 (+ (* (- 1) var0) (- 1))))) (= 0 var3)) (= 0 var2)) (= (+ var0 (- 4)) var1))) (inv_main21 var4 var3 var2 var0 var1))))
(assert (forall ((var0 Int) (var1 Int) (var2 Int) (var3 Int) (var4 Int)) (not (and (inv_main21 var4 var2 var1 var3 var0) (and (not (<= 0 (+ (+ var4 (* (- 1) (+ var2 1))) (- 1)))) (not (or (not (<= 0 (+ (+ var4 (* (- 1) (+ var2 1))) (- 1)))) (or (not (<= 0 (+ (+ var4 (* (- 1) var2)) (- 1)))) (not (<= 0 (+ (+ var0 (* (- 1) var1)) (- 1))))))))))))
(assert (forall ((var0 Int) (var1 Int) (var2 Int) (var3 Int) (var4 Int)) (not (and (inv_main21 var4 var2 var1 var3 var0) (and (not (<= 0 var2)) (not (or (not (<= 0 (+ (+ var4 (* (- 1) (+ var2 1))) (- 1)))) (or (not (<= 0 (+ (+ var4 (* (- 1) var2)) (- 1)))) (not (<= 0 (+ (+ var0 (* (- 1) var1)) (- 1))))))))))))
(assert (forall ((var0 Int) (var1 Int) (var2 Int) (var3 Int) (var4 Int)) (not (and (inv_main21 var4 var2 var1 var3 var0) (and (not (<= 0 (+ (+ var4 (* (- 1) var2)) (- 1)))) (not (or (not (<= 0 (+ (+ var4 (* (- 1) (+ var2 1))) (- 1)))) (or (not (<= 0 (+ (+ var4 (* (- 1) var2)) (- 1)))) (not (<= 0 (+ (+ var0 (* (- 1) var1)) (- 1))))))))))))
(assert (forall ((var0 Int) (var1 Int) (var2 Int) (var3 Int) (var4 Int)) (not (and (inv_main21 var4 var2 var1 var3 var0) (and (not (<= 0 var2)) (not (or (not (<= 0 (+ (+ var4 (* (- 1) (+ var2 1))) (- 1)))) (or (not (<= 0 (+ (+ var4 (* (- 1) var2)) (- 1)))) (not (<= 0 (+ (+ var0 (* (- 1) var1)) (- 1))))))))))))
(assert (forall ((var0 Int) (var1 Int) (var2 Int) (var3 Int) (var4 Int)) (not (and (inv_main21 var4 var2 var1 var3 var0) (and (not (<= 0 (+ (+ var3 (* (- 1) var1)) (- 1)))) (not (or (not (<= 0 (+ (+ var4 (* (- 1) (+ var2 1))) (- 1)))) (or (not (<= 0 (+ (+ var4 (* (- 1) var2)) (- 1)))) (not (<= 0 (+ (+ var0 (* (- 1) var1)) (- 1))))))))))))
(assert (forall ((var0 Int) (var1 Int) (var2 Int) (var3 Int) (var4 Int)) (not (and (inv_main21 var4 var2 var1 var3 var0) (and (not (<= 0 var1)) (not (or (not (<= 0 (+ (+ var4 (* (- 1) (+ var2 1))) (- 1)))) (or (not (<= 0 (+ (+ var4 (* (- 1) var2)) (- 1)))) (not (<= 0 (+ (+ var0 (* (- 1) var1)) (- 1))))))))))))
(assert (forall ((var0 Int) (var1 Int) (var2 Int) (var3 Int) (var4 Int)) (not (and (inv_main21 var3 var1 var4 var2 var0) (and (and (and (not (<= 0 (+ (+ var3 (* (- 1) (+ var1 1))) (- 1)))) (<= 0 (+ (+ var3 (* (- 1) (+ var1 1))) (- 1)))) (<= 0 (+ (+ var3 (* (- 1) var1)) (- 1)))) (<= 0 (+ (+ var0 (* (- 1) var4)) (- 1))))))))
(assert (forall ((var0 Int) (var1 Int) (var2 Int) (var3 Int) (var4 Int)) (not (and (inv_main21 var4 var1 var2 var3 var0) (and (and (and (not (<= 0 (+ var1 1))) (<= 0 (+ (+ var4 (* (- 1) (+ var1 1))) (- 1)))) (<= 0 (+ (+ var4 (* (- 1) var1)) (- 1)))) (<= 0 (+ (+ var0 (* (- 1) var2)) (- 1))))))))
(assert (forall ((var0 Int) (var1 Int) (var2 Int) (var3 Int) (var4 Int)) (not (and (inv_main21 var4 var3 var0 var2 var1) (and (and (and (not (<= 0 (+ (+ var2 (* (- 1) (+ var0 1))) (- 1)))) (<= 0 (+ (+ var4 (* (- 1) (+ var3 1))) (- 1)))) (<= 0 (+ (+ var4 (* (- 1) var3)) (- 1)))) (<= 0 (+ (+ var1 (* (- 1) var0)) (- 1))))))))
(assert (forall ((var0 Int) (var1 Int) (var2 Int) (var3 Int) (var4 Int)) (not (and (inv_main21 var4 var2 var1 var3 var0) (and (and (and (not (<= 0 (+ var1 1))) (<= 0 (+ (+ var4 (* (- 1) (+ var2 1))) (- 1)))) (<= 0 (+ (+ var4 (* (- 1) var2)) (- 1)))) (<= 0 (+ (+ var0 (* (- 1) var1)) (- 1))))))))
(assert (forall ((var0 Int) (var1 Int) (var2 Int) (var3 Int) (var4 Int)) (not (and (inv_main21 var4 var2 var1 var3 var0) (and (and (and (not (<= 0 (+ (+ var3 (* (- 1) (+ (+ var1 1) 1))) (- 1)))) (<= 0 (+ (+ var4 (* (- 1) (+ var2 1))) (- 1)))) (<= 0 (+ (+ var4 (* (- 1) var2)) (- 1)))) (<= 0 (+ (+ var0 (* (- 1) var1)) (- 1))))))))
(assert (forall ((var0 Int) (var1 Int) (var2 Int) (var3 Int) (var4 Int)) (not (and (inv_main21 var3 var1 var4 var2 var0) (and (and (and (not (<= 0 (+ (+ var4 1) 1))) (<= 0 (+ (+ var3 (* (- 1) (+ var1 1))) (- 1)))) (<= 0 (+ (+ var3 (* (- 1) var1)) (- 1)))) (<= 0 (+ (+ var0 (* (- 1) var4)) (- 1))))))))
(assert (forall ((var0 Int) (var1 Int) (var2 Int) (var3 Int) (var4 Int)) (not (and (inv_main25 var4 var2 var1 var3 var0) (not (<= 0 (+ (+ var4 (* (- 1) var2)) (- 1))))))))
(assert (forall ((var0 Int) (var1 Int) (var2 Int) (var3 Int) (var4 Int)) (not (and (inv_main25 var4 var2 var1 var3 var0) (not (<= 0 var2))))))
(assert (forall ((var0 Int) (var1 Int) (var2 Int) (var3 Int) (var4 Int)) (not (and (inv_main25 var4 var2 var1 var3 var0) (not (<= 0 (+ (+ var3 (* (- 1) var1)) (- 1))))))))
(assert (forall ((var0 Int) (var1 Int) (var2 Int) (var3 Int) (var4 Int)) (not (and (inv_main25 var4 var2 var1 var3 var0) (not (<= 0 var1))))))
(check-sat)
